33D32945 STP File, STP Format Version 1.0

SECTION Comments
Name "cube_n12_d2_s42"
Problem "Euclidean Steiner Tree Problem"
Remark "Generated with STPGenerator. 2 dimensions."
END

SECTION Graph
Nodes 12
END

SECTION Coordinates
DD 0 0.0334699480 0.3299642076
DD 1 0.6906357043 0.4224866822
DD 2 0.2062651386 0.2501284509
DD 3 0.6365585242 0.8636223808
DD 4 0.3016556312 0.0249239351
DD 5 0.3649927091 0.7653809822
DD 6 0.3178602631 0.1357283928
DD 7 0.1067452580 0.7606715722
DD 8 0.0816722829 0.5509562085
DD 9 0.5646518891 0.7432705070
DD 10 0.9817601498 0.2188497932
DD 11 0.4543959207 0.5186540231
END
